Cost: 1131
0-3-70-31-30-29-24-26-22-66-14-13-17-64-28-65-1-0
0-57-52-53-44-43-42-32-33-35-69-41-38-36-37-63-39-40-68-46-62-49-48-51-50-54-55-56-0
Cost: 1131
0-3-70-31-30-29-24-26-22-66-14-13-17-64-28-65-1-0
0-57-52-53-44-43-42-32-33-35-69-41-38-36-37-63-39-40-68-46-62-49-48-51-50-54-55-56-0
Cost: 1131
0-3-70-31-30-29-24-26-22-66-14-13-17-64-28-65-1-0
0-57-52-53-44-43-42-32-33-35-69-41-38-36-37-63-39-40-68-46-62-49-48-51-50-54-55-56-0
Cost: 1131
0-3-70-31-30-29-24-26-22-66-14-13-17-64-28-65-1-0
0-57-52-53-44-43-42-32-33-35-69-41-38-36-37-63-39-40-68-46-62-49-48-51-50-54-55-56-0
Cost: 1131
0-3-70-31-30-29-24-26-22-66-14-13-17-64-28-65-1-0
0-57-52-53-44-43-42-32-33-35-69-41-38-36-37-63-39-40-68-46-62-49-48-51-50-54-55-56-0
Cost: 1131
0-3-70-31-30-29-24-26-22-66-14-13-17-64-28-65-1-0
0-57-52-53-44-43-42-32-33-35-69-41-38-36-37-63-39-40-68-46-62-49-48-51-50-54-55-56-0
Cost: 1131
0-3-70-31-30-29-24-26-22-66-14-13-17-64-28-65-1-0
0-57-52-53-44-43-42-32-33-35-69-41-38-36-37-63-39-40-68-46-62-49-48-51-50-54-55-56-0
Cost: 1131
0-3-70-31-30-29-24-26-22-66-14-13-17-64-28-65-1-0
0-57-52-53-44-43-42-32-33-35-69-41-38-36-37-63-39-40-68-46-62-49-48-51-50-54-55-56-0
Cost: 1131
0-3-70-31-30-29-24-26-22-66-14-13-17-64-28-65-1-0
0-57-52-53-44-43-42-32-33-35-69-41-38-36-37-63-39-40-68-46-62-49-48-51-50-54-55-56-0
Cost: 1131
0-3-70-31-30-29-24-26-22-66-14-13-17-64-28-65-1-0
0-57-52-53-44-43-42-32-33-35-69-41-38-36-37-63-39-40-68-46-62-49-48-51-50-54-55-56-0
Cost: 1131
0-3-31-30-29-24-26-22-66-14-13-17-64-28-70-65-2-0
0-57-56-52-53-44-43-42-32-33-35-69-41-38-36-37-63-39-40-68-46-62-49-48-51-50-54-55-0
Cost: 1131
0-3-31-30-29-24-26-22-66-14-13-17-64-28-70-65-2-0
0-57-56-52-53-44-43-42-32-33-35-69-41-38-36-37-63-39-40-68-46-62-49-48-51-50-54-55-0
Cost: 1131
0-3-31-30-29-24-26-22-66-14-13-17-64-28-70-65-2-0
0-57-56-52-53-44-43-42-32-33-35-69-41-38-36-37-63-39-40-68-46-62-49-48-51-50-54-55-0
Cost: 1131
0-57-56-52-53-44-43-42-32-33-35-69-41-38-36-37-63-39-40-68-46-62-49-48-51-50-54-55-0
0-31-30-29-24-26-22-66-14-13-17-64-28-70-65-1-2-0
Cost: 1131
0-3-31-30-29-24-26-22-66-14-13-17-64-28-70-65-2-0
0-57-56-52-53-44-43-42-32-33-35-69-41-38-36-37-63-39-40-68-46-62-49-48-51-50-54-55-0
Cost: 1131
0-3-31-30-29-24-26-22-66-14-13-17-64-28-70-65-2-0
0-57-56-52-53-44-43-42-32-33-35-69-41-38-36-37-63-39-40-68-46-62-49-48-51-50-54-55-0
Cost: 1131
0-3-31-30-29-24-26-22-66-14-13-17-64-28-70-65-2-0
0-57-56-52-53-44-43-42-32-33-35-69-41-38-36-37-63-39-40-68-46-62-49-48-51-50-54-55-0
Cost: 1131
0-3-31-30-29-24-26-22-66-14-13-17-64-28-70-65-2-0
0-57-56-52-53-44-43-42-32-33-35-69-41-38-36-37-63-39-40-68-46-62-49-48-51-50-54-55-0
Cost: 1131
0-3-31-30-29-24-26-22-66-14-13-17-64-28-70-65-2-0
0-57-56-52-53-44-43-42-32-33-35-69-41-38-36-37-63-39-40-68-46-62-49-48-51-50-54-55-0
Cost: 1131
0-57-56-52-53-44-43-42-32-33-35-69-41-37-38-36-63-39-40-68-46-62-49-48-51-50-54-55-0
0-3-70-31-30-29-24-26-22-66-14-13-17-64-28-65-1-0
Cost: 1131
0-57-52-53-44-43-42-32-33-35-69-41-38-36-37-63-39-40-68-46-62-49-48-51-50-54-55-56-0
0-4-31-30-29-24-26-22-66-14-13-17-64-28-70-65-2-0
Cost: 1131
0-57-52-53-44-43-42-32-33-35-69-41-38-36-37-63-39-40-68-46-62-49-48-51-50-54-55-56-0
0-4-31-30-29-24-26-22-66-14-13-17-64-28-70-65-2-0
Cost: 1131
0-3-70-31-30-29-24-26-22-17-66-14-13-64-28-65-1-0
0-57-52-53-44-43-42-32-33-35-69-41-37-38-36-63-39-40-68-46-62-49-48-51-50-54-55-56-0
Cost: 1131
0-3-70-31-30-29-24-26-22-17-66-14-13-64-28-65-1-0
0-57-52-53-44-43-42-32-33-35-69-41-37-38-36-63-39-40-68-46-62-49-48-51-50-54-55-56-0
Cost: 1131
0-70-31-30-29-24-26-22-66-14-13-17-64-28-65-1-2-0
0-57-56-52-53-44-43-42-32-33-35-69-41-38-36-37-63-39-40-68-46-62-49-48-51-50-54-55-0
Cost: 1131
0-3-70-31-30-29-24-26-22-17-66-14-13-64-28-65-1-0
0-57-52-53-44-43-42-32-33-35-69-41-37-38-36-63-39-40-68-46-62-49-48-51-50-54-55-56-0
Cost: 1131
0-57-56-52-53-44-43-42-32-33-35-69-41-37-38-36-63-39-40-68-46-62-49-48-51-50-54-55-0
0-3-70-31-30-29-24-26-22-66-14-13-17-64-28-65-1-0
Cost: 1131
0-57-52-53-44-43-42-32-33-35-69-41-38-36-37-63-39-40-68-46-62-49-48-51-50-54-55-56-0
0-4-31-30-29-24-26-22-66-14-13-17-64-28-70-65-2-0
Cost: 1131
0-57-52-53-44-43-42-32-33-35-69-41-38-36-37-63-39-40-68-46-62-49-48-51-50-54-55-56-0
0-4-31-30-29-24-26-22-66-14-13-17-64-28-70-65-2-0
Cost: 1131
0-4-5-31-30-29-24-26-22-17-66-14-13-64-28-70-65-0
0-57-56-52-53-44-43-42-32-33-35-69-41-38-36-37-63-39-40-68-46-62-49-48-51-50-54-55-0
Cost: 1131
0-4-5-70-31-30-29-24-26-22-17-66-14-13-64-28-65-0
0-57-52-53-44-43-42-32-33-35-69-41-38-36-37-63-39-40-68-46-62-49-48-51-50-54-55-56-0
Cost: 1131
0-57-52-53-44-43-42-32-33-35-69-41-37-38-36-63-39-40-68-46-62-49-48-51-50-54-55-56-0
0-5-70-31-30-29-24-26-22-17-66-14-13-64-28-65-2-0
Cost: 1131
0-4-70-31-30-29-24-26-22-66-14-13-17-64-28-65-2-0
0-57-52-53-44-43-42-32-33-35-69-41-37-38-36-63-39-40-68-46-62-49-48-51-50-54-55-56-0
Cost: 1131
0-3-31-30-29-24-26-22-66-14-13-17-64-28-70-65-2-0
0-57-56-52-53-44-43-42-32-33-35-69-41-37-38-36-63-39-40-68-46-62-49-48-51-50-54-55-0
